<number of tasks>
20

<cycle time>
1000

<order strength>
0,505


<task times>
1 409
2 170
3 234
4 66
5 481
6 113
7 199
8 51
9 268
10 528
11 501
12 317
13 156
14 408
15 210
16 302
17 251
18 84
19 457
20 45

<precedence relations>
1,4
1,5
1,6
3,4
3,8
4,12
5,7
5,8
6,9
6,14
6,15
7,10
7,11
7,12
7,13
8,10
8,12
8,17
9,13
10,14
10,15
11,14
12,14
12,20
13,16
13,17
14,18
15,19
15,20
16,19
17,20

<end>
